NAME : O2.4579963.tour
COMMENT : Cost = 0_4579963
COMMENT : Found by LKH [Keld Helsgaun] Mon Dec 18 12:50:42 2017
TYPE : TOUR
DIMENSION : 249
TOUR_SECTION
1
2
3
4
5
6
7
8
9
11
12
13
14
15
16
17
18
244
49
90
91
92
93
94
95
135
134
133
132
131
130
129
128
127
126
125
124
123
122
121
160
159
158
157
156
247
22
23
63
103
104
105
145
185
186
187
188
189
190
191
192
193
194
234
233
232
231
230
229
228
227
226
225
243
26
27
67
107
108
109
110
111
112
113
114
115
116
117
118
119
120
81
82
83
84
85
86
87
88
89
248
10
50
51
52
53
54
55
56
97
98
138
137
177
217
216
215
214
213
212
211
210
209
208
207
206
205
204
246
21
61
62
102
101
100
99
139
140
141
142
143
144
184
183
182
181
180
179
178
218
219
220
221
222
223
224
245
19
20
60
59
58
57
96
136
176
175
174
173
172
171
170
169
168
167
166
165
164
163
162
161
200
199
198
197
196
249
30
29
28
68
69
70
71
72
73
74
75
76
77
78
79
80
41
42
43
44
45
46
47
48
242
25
24
64
65
66
106
146
147
148
149
150
151
152
153
154
155
195
235
236
237
238
239
240
201
202
203
241
31
32
33
34
35
36
37
38
39
40
-1
EOF
